375327
10,35,86,100,36,54,11,41,37,39,51,21,17,62,25,50,74,14,27,28,24,59,44,92,106,20,55,63,75,18,2,32,7,89,83,84,49,38,94,85,33,102,79,1,60,91,82,72,71,95,101,104,67,96,78,43,87,66,12,80,23,76,58,93,97,8,57,34,99,19,42,46,45,68,69,90,40,77,6,22,48,73,105,70,3,15,4,103,47,53,81,31,98,9,26,61,88,64,16,56,29,5,30,13,52,65,10